1600 3200
1 2 2
1 41 1
2 3 2
2 42 4
3 4 4
3 43 1
4 5 1
4 44 5
5 6 5
5 45 2
6 7 5
6 46 1
7 8 3
7 47 4
8 9 3
8 48 4
9 10 3
9 49 3
10 11 2
10 50 5
11 12 3
11 51 2
12 13 4
12 52 5
13 14 5
13 53 3
14 15 2
14 54 4
15 16 4
15 55 1
16 17 2
16 56 1
17 18 5
17 57 1
18 19 4
18 58 4
19 20 5
19 59 2
20 21 4
20 60 2
21 22 3
21 61 2
22 23 4
22 62 1
23 24 2
23 63 2
24 25 3
24 64 1
25 26 1
25 65 3
26 27 1
26 66 5
27 28 4
27 67 2
28 29 3
28 68 5
29 30 2
29 69 2
30 31 3
30 70 5
31 32 4
31 71 3
32 33 3
32 72 5
33 34 5
33 73 4
34 35 2
34 74 5
35 36 5
35 75 3
36 37 1
36 76 4
37 38 1
37 77 2
38 39 2
38 78 3
39 40 5
39 79 3
40 80 4
41 42 3
41 81 2
42 43 2
42 82 3
43 44 2
43 83 2
44 45 3
44 84 4
45 46 2
45 85 1
46 47 2
46 86 4
47 48 4
47 87 3
48 49 5
48 88 2
49 50 1
49 89 2
50 51 1
50 90 3
51 52 3
51 91 1
52 53 1
52 92 4
53 54 1
53 93 3
54 55 4
54 94 3
55 56 1
55 95 2
56 57 2
56 96 2
57 58 4
57 97 3
58 59 3
58 98 3
59 60 5
59 99 3
60 61 3
60 100 3
61 62 4
61 101 2
62 63 1
62 102 4
63 64 1
63 103 2
64 65 4
64 104 2
65 66 5
65 105 3
66 67 5
66 106 2
67 68 1
67 107 1
68 69 2
68 108 1
69 70 2
69 109 5
70 71 3
70 110 2
71 72 4
71 111 1
72 73 1
72 112 2
73 74 5
73 113 1
74 75 4
74 114 2
75 76 1
75 115 5
76 77 2
76 116 1
77 78 3
77 117 3
78 79 4
78 118 3
79 80 1
79 119 3
80 120 4
81 82 3
81 121 5
82 83 5
82 122 5
83 84 3
83 123 2
84 85 2
84 124 2
85 86 4
85 125 3
86 87 5
86 126 2
87 88 3
87 127 2
88 89 4
88 128 3
89 90 1
89 129 2
90 91 2
90 130 3
91 92 2
91 131 5
92 93 3
92 132 3
93 94 4
93 133 4
94 95 1
94 134 3
95 96 1
95 135 5
96 97 2
96 136 5
97 98 4
97 137 4
98 99 1
98 138 1
99 100 2
99 139 5
100 101 2
100 140 4
101 102 1
101 141 5
102 103 3
102 142 3
103 104 1
103 143 5
104 105 5
104 144 1
105 106 1
105 145 5
106 107 5
106 146 1
107 108 2
107 147 3
108 109 1
108 148 2
109 110 2
109 149 5
110 111 5
110 150 1
111 112 5
111 151 4
112 113 4
112 152 1
113 114 4
113 153 2
114 115 4
114 154 1
115 116 1
115 155 1
116 117 5
116 156 3
117 118 1
117 157 5
118 119 3
118 158 4
119 120 2
119 159 3
120 160 5
121 122 1
121 161 4
122 123 4
122 162 1
123 124 2
123 163 3
124 125 3
124 164 5
125 126 5
125 165 5
126 127 2
126 166 1
127 128 1
127 167 4
128 129 2
128 168 5
129 130 3
129 169 1
130 131 5
130 170 4
131 132 3
131 171 2
132 133 1
132 172 3
133 134 5
133 173 4
134 135 5
134 174 4
135 136 5
135 175 5
136 137 5
136 176 4
137 138 3
137 177 1
138 139 3
138 178 3
139 140 5
139 179 5
140 141 5
140 180 1
141 142 2
141 181 5
142 143 4
142 182 2
143 144 3
143 183 4
144 145 4
144 184 1
145 146 4
145 185 4
146 147 3
146 186 3
147 148 5
147 187 4
148 149 2
148 188 4
149 150 1
149 189 1
150 151 4
150 190 3
151 152 2
151 191 2
152 153 1
152 192 3
153 154 1
153 193 4
154 155 5
154 194 2
155 156 2
155 195 2
156 157 2
156 196 5
157 158 2
157 197 5
158 159 1
158 198 2
159 160 5
159 199 5
160 200 2
161 162 1
161 201 5
162 163 1
162 202 3
163 164 3
163 203 5
164 165 5
164 204 4
165 166 1
165 205 5
166 167 1
166 206 4
167 168 2
167 207 2
168 169 1
168 208 5
169 170 1
169 209 5
170 171 1
170 210 4
171 172 1
171 211 4
172 173 4
172 212 1
173 174 5
173 213 4
174 175 4
174 214 4
175 176 4
175 215 1
176 177 2
176 216 2
177 178 3
177 217 3
178 179 1
178 218 2
179 180 2
179 219 4
180 181 2
180 220 4
181 182 1
181 221 3
182 183 1
182 222 2
183 184 4
183 223 1
184 185 3
184 224 5
185 186 1
185 225 5
186 187 4
186 226 5
187 188 4
187 227 5
188 189 5
188 228 3
189 190 2
189 229 3
190 191 5
190 230 1
191 192 1
191 231 1
192 193 1
192 232 2
193 194 1
193 233 1
194 195 4
194 234 5
195 196 2
195 235 3
196 197 4
196 236 2
197 198 5
197 237 5
198 199 3
198 238 2
199 200 1
199 239 4
200 240 3
201 202 5
201 241 2
202 203 4
202 242 1
203 204 3
203 243 3
204 205 2
204 244 5
205 206 3
205 245 3
206 207 4
206 246 1
207 208 3
207 247 2
208 209 3
208 248 3
209 210 1
209 249 1
210 211 5
210 250 3
211 212 1
211 251 4
212 213 3
212 252 4
213 214 4
213 253 4
214 215 2
214 254 4
215 216 3
215 255 2
216 217 1
216 256 1
217 218 1
217 257 1
218 219 5
218 258 1
219 220 1
219 259 1
220 221 2
220 260 5
221 222 1
221 261 5
222 223 3
222 262 4
223 224 4
223 263 2
224 225 5
224 264 2
225 226 5
225 265 3
226 227 5
226 266 5
227 228 1
227 267 5
228 229 4
228 268 1
229 230 4
229 269 1
230 231 1
230 270 1
231 232 4
231 271 4
232 233 1
232 272 4
233 234 1
233 273 3
234 235 4
234 274 5
235 236 1
235 275 1
236 237 2
236 276 5
237 238 2
237 277 4
238 239 3
238 278 4
239 240 1
239 279 4
240 280 3
241 242 3
241 281 1
242 243 2
242 282 1
243 244 3
243 283 1
244 245 4
244 284 5
245 246 1
245 285 4
246 247 2
246 286 2
247 248 5
247 287 5
248 249 2
248 288 3
249 250 2
249 289 2
250 251 1
250 290 3
251 252 2
251 291 4
252 253 1
252 292 4
253 254 2
253 293 3
254 255 2
254 294 3
255 256 2
255 295 1
256 257 3
256 296 1
257 258 4
257 297 5
258 259 2
258 298 3
259 260 3
259 299 2
260 261 1
260 300 1
261 262 1
261 301 4
262 263 5
262 302 3
263 264 1
263 303 1
264 265 4
264 304 2
265 266 2
265 305 3
266 267 5
266 306 5
267 268 5
267 307 4
268 269 5
268 308 3
269 270 4
269 309 3
270 271 1
270 310 1
271 272 5
271 311 4
272 273 4
272 312 1
273 274 5
273 313 4
274 275 3
274 314 4
275 276 2
275 315 2
276 277 2
276 316 5
277 278 2
277 317 5
278 279 2
278 318 4
279 280 1
279 319 3
280 320 2
281 282 4
281 321 3
282 283 3
282 322 3
283 284 5
283 323 5
284 285 1
284 324 1
285 286 2
285 325 2
286 287 1
286 326 1
287 288 2
287 327 1
288 289 3
288 328 5
289 290 4
289 329 5
290 291 4
290 330 5
291 292 4
291 331 4
292 293 2
292 332 5
293 294 5
293 333 2
294 295 5
294 334 5
295 296 4
295 335 3
296 297 5
296 336 3
297 298 5
297 337 5
298 299 1
298 338 3
299 300 2
299 339 4
300 301 3
300 340 5
301 302 1
301 341 2
302 303 1
302 342 5
303 304 2
303 343 3
304 305 4
304 344 3
305 306 1
305 345 1
306 307 5
306 346 3
307 308 3
307 347 1
308 309 5
308 348 5
309 310 5
309 349 5
310 311 5
310 350 4
311 312 3
311 351 3
312 313 3
312 352 5
313 314 4
313 353 1
314 315 4
314 354 3
315 316 5
315 355 3
316 317 5
316 356 2
317 318 5
317 357 2
318 319 2
318 358 3
319 320 1
319 359 4
320 360 2
321 322 5
321 361 2
322 323 3
322 362 1
323 324 4
323 363 5
324 325 4
324 364 5
325 326 4
325 365 5
326 327 4
326 366 4
327 328 4
327 367 4
328 329 1
328 368 3
329 330 5
329 369 5
330 331 3
330 370 2
331 332 4
331 371 3
332 333 1
332 372 3
333 334 4
333 373 5
334 335 2
334 374 1
335 336 3
335 375 1
336 337 5
336 376 5
337 338 2
337 377 4
338 339 1
338 378 3
339 340 2
339 379 2
340 341 3
340 380 1
341 342 2
341 381 5
342 343 3
342 382 3
343 344 4
343 383 1
344 345 3
344 384 5
345 346 1
345 385 3
346 347 1
346 386 4
347 348 2
347 387 1
348 349 1
348 388 1
349 350 2
349 389 5
350 351 2
350 390 2
351 352 1
351 391 4
352 353 4
352 392 1
353 354 2
353 393 2
354 355 2
354 394 4
355 356 3
355 395 3
356 357 2
356 396 3
357 358 3
357 397 4
358 359 5
358 398 4
359 360 3
359 399 5
360 400 3
361 362 1
361 401 4
362 363 4
362 402 1
363 364 1
363 403 2
364 365 1
364 404 4
365 366 2
365 405 4
366 367 2
366 406 1
367 368 4
367 407 2
368 369 5
368 408 3
369 370 3
369 409 3
370 371 2
370 410 5
371 372 4
371 411 1
372 373 5
372 412 3
373 374 5
373 413 2
374 375 3
374 414 5
375 376 1
375 415 2
376 377 4
376 416 2
377 378 3
377 417 5
378 379 2
378 418 5
379 380 3
379 419 5
380 381 2
380 420 1
381 382 4
381 421 5
382 383 4
382 422 1
383 384 4
383 423 5
384 385 4
384 424 4
385 386 2
385 425 5
386 387 1
386 426 2
387 388 1
387 427 4
388 389 3
388 428 5
389 390 1
389 429 2
390 391 4
390 430 5
391 392 1
391 431 1
392 393 4
392 432 2
393 394 5
393 433 5
394 395 2
394 434 1
395 396 1
395 435 1
396 397 4
396 436 5
397 398 1
397 437 2
398 399 2
398 438 4
399 400 1
399 439 4
400 440 2
401 402 1
401 441 2
402 403 3
402 442 5
403 404 3
403 443 4
404 405 1
404 444 3
405 406 1
405 445 3
406 407 2
406 446 4
407 408 3
407 447 2
408 409 5
408 448 4
409 410 4
409 449 2
410 411 1
410 450 3
411 412 5
411 451 4
412 413 3
412 452 4
413 414 3
413 453 4
414 415 4
414 454 3
415 416 5
415 455 5
416 417 1
416 456 5
417 418 2
417 457 1
418 419 4
418 458 1
419 420 4
419 459 2
420 421 5
420 460 4
421 422 2
421 461 5
422 423 5
422 462 3
423 424 5
423 463 2
424 425 3
424 464 3
425 426 4
425 465 4
426 427 1
426 466 1
427 428 1
427 467 4
428 429 1
428 468 2
429 430 4
429 469 5
430 431 1
430 470 2
431 432 1
431 471 5
432 433 2
432 472 1
433 434 5
433 473 3
434 435 3
434 474 5
435 436 4
435 475 5
436 437 2
436 476 4
437 438 5
437 477 3
438 439 1
438 478 5
439 440 2
439 479 3
440 480 2
441 442 3
441 481 5
442 443 5
442 482 5
443 444 1
443 483 4
444 445 3
444 484 4
445 446 2
445 485 4
446 447 1
446 486 3
447 448 5
447 487 2
448 449 2
448 488 2
449 450 2
449 489 1
450 451 1
450 490 5
451 452 5
451 491 3
452 453 1
452 492 1
453 454 3
453 493 1
454 455 1
454 494 4
455 456 4
455 495 3
456 457 2
456 496 4
457 458 2
457 497 1
458 459 4
458 498 5
459 460 2
459 499 1
460 461 3
460 500 5
461 462 4
461 501 1
462 463 5
462 502 4
463 464 4
463 503 2
464 465 3
464 504 2
465 466 3
465 505 4
466 467 5
466 506 3
467 468 4
467 507 3
468 469 4
468 508 4
469 470 3
469 509 5
470 471 3
470 510 4
471 472 1
471 511 4
472 473 1
472 512 3
473 474 2
473 513 5
474 475 5
474 514 5
475 476 1
475 515 3
476 477 5
476 516 1
477 478 3
477 517 4
478 479 1
478 518 4
479 480 2
479 519 4
480 520 3
481 482 4
481 521 2
482 483 3
482 522 2
483 484 4
483 523 1
484 485 4
484 524 1
485 486 2
485 525 4
486 487 1
486 526 2
487 488 4
487 527 3
488 489 5
488 528 3
489 490 3
489 529 1
490 491 2
490 530 4
491 492 1
491 531 1
492 493 5
492 532 3
493 494 2
493 533 2
494 495 4
494 534 1
495 496 5
495 535 2
496 497 1
496 536 5
497 498 2
497 537 4
498 499 3
498 538 1
499 500 5
499 539 5
500 501 2
500 540 2
501 502 2
501 541 4
502 503 3
502 542 4
503 504 4
503 543 1
504 505 4
504 544 2
505 506 4
505 545 5
506 507 5
506 546 5
507 508 1
507 547 3
508 509 3
508 548 2
509 510 4
509 549 5
510 511 2
510 550 4
511 512 4
511 551 4
512 513 5
512 552 1
513 514 5
513 553 5
514 515 2
514 554 2
515 516 2
515 555 4
516 517 2
516 556 2
517 518 5
517 557 3
518 519 2
518 558 2
519 520 5
519 559 5
520 560 2
521 522 3
521 561 2
522 523 3
522 562 4
523 524 2
523 563 5
524 525 2
524 564 4
525 526 3
525 565 2
526 527 3
526 566 3
527 528 2
527 567 3
528 529 1
528 568 2
529 530 5
529 569 3
530 531 1
530 570 4
531 532 2
531 571 1
532 533 4
532 572 5
533 534 5
533 573 2
534 535 2
534 574 5
535 536 5
535 575 4
536 537 5
536 576 3
537 538 5
537 577 1
538 539 4
538 578 2
539 540 1
539 579 1
540 541 1
540 580 3
541 542 4
541 581 3
542 543 4
542 582 3
543 544 2
543 583 2
544 545 5
544 584 1
545 546 1
545 585 4
546 547 4
546 586 3
547 548 4
547 587 5
548 549 2
548 588 3
549 550 4
549 589 1
550 551 3
550 590 1
551 552 5
551 591 4
552 553 5
552 592 4
553 554 1
553 593 4
554 555 4
554 594 5
555 556 3
555 595 3
556 557 2
556 596 2
557 558 5
557 597 1
558 559 3
558 598 3
559 560 3
559 599 5
560 600 4
561 562 2
561 601 1
562 563 5
562 602 2
563 564 2
563 603 4
564 565 5
564 604 4
565 566 5
565 605 1
566 567 5
566 606 2
567 568 2
567 607 5
568 569 1
568 608 2
569 570 4
569 609 5
570 571 3
570 610 3
571 572 4
571 611 3
572 573 2
572 612 2
573 574 2
573 613 2
574 575 4
574 614 2
575 576 1
575 615 4
576 577 1
576 616 2
577 578 1
577 617 2
578 579 2
578 618 2
579 580 4
579 619 2
580 581 4
580 620 3
581 582 3
581 621 1
582 583 3
582 622 5
583 584 4
583 623 1
584 585 4
584 624 1
585 586 1
585 625 5
586 587 5
586 626 1
587 588 2
587 627 5
588 589 2
588 628 2
589 590 3
589 629 4
590 591 2
590 630 3
591 592 1
591 631 3
592 593 3
592 632 5
593 594 5
593 633 4
594 595 1
594 634 1
595 596 3
595 635 2
596 597 2
596 636 4
597 598 2
597 637 4
598 599 4
598 638 5
599 600 5
599 639 4
600 640 3
601 602 2
601 641 5
602 603 3
602 642 3
603 604 5
603 643 1
604 605 4
604 644 2
605 606 4
605 645 1
606 607 5
606 646 1
607 608 2
607 647 3
608 609 1
608 648 5
609 610 2
609 649 4
610 611 1
610 650 3
611 612 5
611 651 4
612 613 2
612 652 2
613 614 1
613 653 4
614 615 2
614 654 2
615 616 5
615 655 3
616 617 5
616 656 3
617 618 5
617 657 3
618 619 4
618 658 4
619 620 3
619 659 2
620 621 5
620 660 5
621 622 2
621 661 4
622 623 1
622 662 3
623 624 1
623 663 4
624 625 2
624 664 4
625 626 1
625 665 3
626 627 5
626 666 4
627 628 4
627 667 5
628 629 5
628 668 5
629 630 3
629 669 2
630 631 5
630 670 3
631 632 3
631 671 5
632 633 4
632 672 5
633 634 5
633 673 3
634 635 5
634 674 5
635 636 2
635 675 3
636 637 4
636 676 2
637 638 3
637 677 1
638 639 4
638 678 5
639 640 2
639 679 2
640 680 2
641 642 4
641 681 3
642 643 1
642 682 3
643 644 2
643 683 3
644 645 5
644 684 2
645 646 2
645 685 5
646 647 1
646 686 1
647 648 4
647 687 3
648 649 3
648 688 5
649 650 1
649 689 3
650 651 2
650 690 3
651 652 2
651 691 3
652 653 4
652 692 3
653 654 1
653 693 1
654 655 4
654 694 4
655 656 2
655 695 4
656 657 3
656 696 5
657 658 4
657 697 5
658 659 1
658 698 5
659 660 4
659 699 3
660 661 4
660 700 3
661 662 3
661 701 1
662 663 1
662 702 5
663 664 1
663 703 3
664 665 1
664 704 5
665 666 2
665 705 3
666 667 5
666 706 3
667 668 3
667 707 4
668 669 2
668 708 5
669 670 3
669 709 3
670 671 5
670 710 4
671 672 3
671 711 3
672 673 2
672 712 4
673 674 3
673 713 2
674 675 5
674 714 2
675 676 5
675 715 3
676 677 1
676 716 3
677 678 5
677 717 2
678 679 1
678 718 3
679 680 2
679 719 2
680 720 2
681 682 2
681 721 2
682 683 1
682 722 5
683 684 5
683 723 4
684 685 5
684 724 1
685 686 1
685 725 4
686 687 4
686 726 2
687 688 1
687 727 5
688 689 4
688 728 3
689 690 4
689 729 2
690 691 4
690 730 1
691 692 2
691 731 3
692 693 4
692 732 2
693 694 1
693 733 3
694 695 5
694 734 4
695 696 5
695 735 3
696 697 1
696 736 1
697 698 4
697 737 3
698 699 3
698 738 2
699 700 3
699 739 1
700 701 3
700 740 4
701 702 1
701 741 1
702 703 2
702 742 1
703 704 4
703 743 4
704 705 2
704 744 4
705 706 1
705 745 1
706 707 5
706 746 4
707 708 3
707 747 2
708 709 2
708 748 2
709 710 5
709 749 4
710 711 5
710 750 2
711 712 4
711 751 4
712 713 3
712 752 5
713 714 5
713 753 2
714 715 1
714 754 1
715 716 5
715 755 4
716 717 1
716 756 4
717 718 4
717 757 5
718 719 3
718 758 4
719 720 4
719 759 5
720 760 5
721 722 5
721 761 2
722 723 4
722 762 5
723 724 2
723 763 5
724 725 3
724 764 3
725 726 2
725 765 2
726 727 5
726 766 3
727 728 4
727 767 4
728 729 5
728 768 4
729 730 4
729 769 4
730 731 2
730 770 1
731 732 3
731 771 2
732 733 4
732 772 3
733 734 1
733 773 1
734 735 1
734 774 3
735 736 4
735 775 1
736 737 1
736 776 2
737 738 2
737 777 3
738 739 3
738 778 4
739 740 2
739 779 1
740 741 4
740 780 3
741 742 5
741 781 2
742 743 3
742 782 2
743 744 1
743 783 4
744 745 2
744 784 5
745 746 5
745 785 3
746 747 1
746 786 3
747 748 3
747 787 4
748 749 3
748 788 2
749 750 1
749 789 1
750 751 1
750 790 2
751 752 4
751 791 3
752 753 1
752 792 1
753 754 5
753 793 5
754 755 1
754 794 1
755 756 4
755 795 4
756 757 2
756 796 4
757 758 1
757 797 2
758 759 5
758 798 3
759 760 3
759 799 5
760 800 1
761 762 4
761 801 1
762 763 3
762 802 2
763 764 5
763 803 2
764 765 3
764 804 2
765 766 2
765 805 2
766 767 5
766 806 4
767 768 1
767 807 2
768 769 3
768 808 2
769 770 4
769 809 5
770 771 2
770 810 4
771 772 5
771 811 2
772 773 3
772 812 4
773 774 5
773 813 4
774 775 5
774 814 3
775 776 1
775 815 1
776 777 5
776 816 1
777 778 4
777 817 4
778 779 3
778 818 4
779 780 1
779 819 4
780 781 3
780 820 3
781 782 4
781 821 3
782 783 1
782 822 5
783 784 5
783 823 4
784 785 1
784 824 3
785 786 1
785 825 1
786 787 1
786 826 3
787 788 5
787 827 4
788 789 4
788 828 2
789 790 5
789 829 3
790 791 1
790 830 1
791 792 1
791 831 3
792 793 2
792 832 1
793 794 3
793 833 1
794 795 4
794 834 2
795 796 4
795 835 5
796 797 2
796 836 5
797 798 1
797 837 3
798 799 1
798 838 4
799 800 5
799 839 1
800 840 5
801 802 4
801 841 4
802 803 2
802 842 3
803 804 3
803 843 4
804 805 5
804 844 5
805 806 5
805 845 4
806 807 1
806 846 3
807 808 2
807 847 2
808 809 5
808 848 4
809 810 3
809 849 3
810 811 2
810 850 5
811 812 2
811 851 4
812 813 1
812 852 3
813 814 4
813 853 3
814 815 3
814 854 2
815 816 2
815 855 3
816 817 4
816 856 5
817 818 4
817 857 2
818 819 4
818 858 3
819 820 1
819 859 5
820 821 1
820 860 1
821 822 1
821 861 3
822 823 2
822 862 5
823 824 3
823 863 3
824 825 2
824 864 1
825 826 4
825 865 2
826 827 3
826 866 4
827 828 4
827 867 5
828 829 5
828 868 3
829 830 4
829 869 5
830 831 4
830 870 4
831 832 5
831 871 3
832 833 5
832 872 3
833 834 3
833 873 2
834 835 3
834 874 4
835 836 3
835 875 5
836 837 3
836 876 4
837 838 2
837 877 2
838 839 3
838 878 4
839 840 4
839 879 4
840 880 2
841 842 1
841 881 5
842 843 2
842 882 1
843 844 3
843 883 4
844 845 1
844 884 2
845 846 1
845 885 4
846 847 3
846 886 2
847 848 2
847 887 3
848 849 2
848 888 5
849 850 1
849 889 1
850 851 5
850 890 1
851 852 1
851 891 2
852 853 3
852 892 3
853 854 1
853 893 5
854 855 5
854 894 3
855 856 5
855 895 4
856 857 2
856 896 5
857 858 4
857 897 4
858 859 3
858 898 2
859 860 1
859 899 5
860 861 5
860 900 5
861 862 5
861 901 5
862 863 2
862 902 3
863 864 1
863 903 5
864 865 1
864 904 5
865 866 4
865 905 4
866 867 5
866 906 2
867 868 4
867 907 3
868 869 5
868 908 1
869 870 1
869 909 5
870 871 3
870 910 1
871 872 3
871 911 1
872 873 4
872 912 4
873 874 1
873 913 1
874 875 3
874 914 3
875 876 3
875 915 4
876 877 3
876 916 4
877 878 3
877 917 1
878 879 4
878 918 3
879 880 2
879 919 2
880 920 5
881 882 3
881 921 5
882 883 5
882 922 1
883 884 2
883 923 3
884 885 5
884 924 5
885 886 4
885 925 5
886 887 4
886 926 4
887 888 4
887 927 4
888 889 5
888 928 3
889 890 3
889 929 3
890 891 5
890 930 4
891 892 2
891 931 4
892 893 2
892 932 5
893 894 4
893 933 4
894 895 1
894 934 3
895 896 2
895 935 3
896 897 5
896 936 2
897 898 1
897 937 3
898 899 2
898 938 2
899 900 2
899 939 5
900 901 1
900 940 3
901 902 4
901 941 3
902 903 4
902 942 1
903 904 4
903 943 2
904 905 1
904 944 4
905 906 4
905 945 3
906 907 4
906 946 3
907 908 3
907 947 2
908 909 2
908 948 3
909 910 4
909 949 4
910 911 4
910 950 5
911 912 5
911 951 2
912 913 2
912 952 5
913 914 2
913 953 2
914 915 5
914 954 1
915 916 3
915 955 5
916 917 5
916 956 2
917 918 1
917 957 1
918 919 5
918 958 3
919 920 1
919 959 4
920 960 2
921 922 3
921 961 4
922 923 1
922 962 3
923 924 5
923 963 2
924 925 5
924 964 4
925 926 2
925 965 2
926 927 3
926 966 5
927 928 1
927 967 2
928 929 5
928 968 2
929 930 5
929 969 5
930 931 2
930 970 1
931 932 4
931 971 2
932 933 1
932 972 3
933 934 3
933 973 5
934 935 2
934 974 2
935 936 4
935 975 5
936 937 3
936 976 5
937 938 3
937 977 1
938 939 3
938 978 4
939 940 3
939 979 3
940 941 2
940 980 4
941 942 2
941 981 2
942 943 3
942 982 2
943 944 1
943 983 1
944 945 4
944 984 3
945 946 2
945 985 1
946 947 5
946 986 2
947 948 2
947 987 3
948 949 4
948 988 2
949 950 1
949 989 4
950 951 5
950 990 2
951 952 3
951 991 3
952 953 5
952 992 2
953 954 3
953 993 1
954 955 4
954 994 3
955 956 3
955 995 1
956 957 2
956 996 2
957 958 2
957 997 5
958 959 5
958 998 4
959 960 1
959 999 1
960 1000 5
961 962 1
961 1001 5
962 963 3
962 1002 2
963 964 5
963 1003 5
964 965 1
964 1004 5
965 966 2
965 1005 1
966 967 5
966 1006 1
967 968 4
967 1007 2
968 969 4
968 1008 2
969 970 2
969 1009 4
970 971 2
970 1010 3
971 972 4
971 1011 4
972 973 2
972 1012 2
973 974 5
973 1013 5
974 975 5
974 1014 5
975 976 3
975 1015 4
976 977 5
976 1016 4
977 978 3
977 1017 2
978 979 4
978 1018 3
979 980 5
979 1019 2
980 981 3
980 1020 4
981 982 5
981 1021 2
982 983 1
982 1022 1
983 984 3
983 1023 1
984 985 2
984 1024 2
985 986 5
985 1025 5
986 987 4
986 1026 1
987 988 2
987 1027 4
988 989 1
988 1028 1
989 990 4
989 1029 1
990 991 5
990 1030 4
991 992 3
991 1031 1
992 993 5
992 1032 4
993 994 5
993 1033 1
994 995 5
994 1034 1
995 996 2
995 1035 5
996 997 3
996 1036 4
997 998 1
997 1037 4
998 999 4
998 1038 4
999 1000 3
999 1039 5
1000 1040 2
1001 1002 5
1001 1041 3
1002 1003 4
1002 1042 5
1003 1004 2
1003 1043 5
1004 1005 3
1004 1044 5
1005 1006 4
1005 1045 4
1006 1007 3
1006 1046 2
1007 1008 4
1007 1047 2
1008 1009 1
1008 1048 1
1009 1010 5
1009 1049 5
1010 1011 4
1010 1050 5
1011 1012 4
1011 1051 1
1012 1013 1
1012 1052 3
1013 1014 3
1013 1053 5
1014 1015 4
1014 1054 4
1015 1016 5
1015 1055 2
1016 1017 1
1016 1056 4
1017 1018 4
1017 1057 1
1018 1019 5
1018 1058 3
1019 1020 1
1019 1059 5
1020 1021 5
1020 1060 3
1021 1022 3
1021 1061 2
1022 1023 2
1022 1062 1
1023 1024 4
1023 1063 3
1024 1025 3
1024 1064 2
1025 1026 1
1025 1065 2
1026 1027 2
1026 1066 5
1027 1028 1
1027 1067 1
1028 1029 2
1028 1068 1
1029 1030 4
1029 1069 5
1030 1031 4
1030 1070 4
1031 1032 5
1031 1071 1
1032 1033 1
1032 1072 1
1033 1034 4
1033 1073 5
1034 1035 1
1034 1074 3
1035 1036 1
1035 1075 4
1036 1037 4
1036 1076 3
1037 1038 1
1037 1077 5
1038 1039 3
1038 1078 4
1039 1040 1
1039 1079 3
1040 1080 2
1041 1042 2
1041 1081 4
1042 1043 4
1042 1082 4
1043 1044 2
1043 1083 4
1044 1045 4
1044 1084 5
1045 1046 5
1045 1085 3
1046 1047 4
1046 1086 5
1047 1048 4
1047 1087 4
1048 1049 3
1048 1088 3
1049 1050 1
1049 1089 3
1050 1051 2
1050 1090 4
1051 1052 1
1051 1091 5
1052 1053 4
1052 1092 2
1053 1054 2
1053 1093 3
1054 1055 5
1054 1094 3
1055 1056 1
1055 1095 4
1056 1057 2
1056 1096 5
1057 1058 1
1057 1097 2
1058 1059 2
1058 1098 1
1059 1060 1
1059 1099 3
1060 1061 4
1060 1100 5
1061 1062 1
1061 1101 2
1062 1063 2
1062 1102 5
1063 1064 4
1063 1103 4
1064 1065 4
1064 1104 3
1065 1066 1
1065 1105 1
1066 1067 3
1066 1106 5
1067 1068 5
1067 1107 1
1068 1069 5
1068 1108 5
1069 1070 3
1069 1109 2
1070 1071 3
1070 1110 4
1071 1072 4
1071 1111 3
1072 1073 1
1072 1112 1
1073 1074 5
1073 1113 3
1074 1075 4
1074 1114 5
1075 1076 2
1075 1115 5
1076 1077 4
1076 1116 2
1077 1078 5
1077 1117 5
1078 1079 4
1078 1118 3
1079 1080 2
1079 1119 2
1080 1120 5
1081 1082 3
1081 1121 1
1082 1083 1
1082 1122 5
1083 1084 2
1083 1123 2
1084 1085 4
1084 1124 5
1085 1086 2
1085 1125 1
1086 1087 2
1086 1126 1
1087 1088 4
1087 1127 5
1088 1089 4
1088 1128 4
1089 1090 3
1089 1129 5
1090 1091 4
1090 1130 2
1091 1092 5
1091 1131 1
1092 1093 5
1092 1132 1
1093 1094 3
1093 1133 3
1094 1095 1
1094 1134 4
1095 1096 5
1095 1135 1
1096 1097 3
1096 1136 3
1097 1098 3
1097 1137 2
1098 1099 4
1098 1138 2
1099 1100 5
1099 1139 4
1100 1101 3
1100 1140 5
1101 1102 1
1101 1141 4
1102 1103 5
1102 1142 4
1103 1104 3
1103 1143 4
1104 1105 1
1104 1144 1
1105 1106 5
1105 1145 2
1106 1107 3
1106 1146 3
1107 1108 3
1107 1147 1
1108 1109 3
1108 1148 1
1109 1110 5
1109 1149 1
1110 1111 4
1110 1150 4
1111 1112 3
1111 1151 5
1112 1113 5
1112 1152 5
1113 1114 2
1113 1153 1
1114 1115 4
1114 1154 2
1115 1116 4
1115 1155 2
1116 1117 3
1116 1156 2
1117 1118 2
1117 1157 3
1118 1119 5
1118 1158 3
1119 1120 3
1119 1159 5
1120 1160 1
1121 1122 2
1121 1161 2
1122 1123 2
1122 1162 2
1123 1124 1
1123 1163 2
1124 1125 2
1124 1164 2
1125 1126 1
1125 1165 5
1126 1127 2
1126 1166 4
1127 1128 2
1127 1167 4
1128 1129 4
1128 1168 2
1129 1130 3
1129 1169 2
1130 1131 3
1130 1170 5
1131 1132 5
1131 1171 1
1132 1133 4
1132 1172 4
1133 1134 2
1133 1173 5
1134 1135 1
1134 1174 3
1135 1136 1
1135 1175 2
1136 1137 3
1136 1176 5
1137 1138 4
1137 1177 3
1138 1139 5
1138 1178 1
1139 1140 2
1139 1179 3
1140 1141 1
1140 1180 4
1141 1142 2
1141 1181 5
1142 1143 5
1142 1182 2
1143 1144 5
1143 1183 5
1144 1145 2
1144 1184 1
1145 1146 5
1145 1185 2
1146 1147 2
1146 1186 5
1147 1148 5
1147 1187 5
1148 1149 2
1148 1188 3
1149 1150 3
1149 1189 2
1150 1151 3
1150 1190 1
1151 1152 4
1151 1191 2
1152 1153 4
1152 1192 3
1153 1154 2
1153 1193 2
1154 1155 5
1154 1194 3
1155 1156 5
1155 1195 3
1156 1157 5
1156 1196 4
1157 1158 5
1157 1197 3
1158 1159 1
1158 1198 1
1159 1160 4
1159 1199 5
1160 1200 3
1161 1162 4
1161 1201 1
1162 1163 4
1162 1202 4
1163 1164 1
1163 1203 5
1164 1165 2
1164 1204 1
1165 1166 1
1165 1205 3
1166 1167 4
1166 1206 4
1167 1168 3
1167 1207 5
1168 1169 4
1168 1208 5
1169 1170 3
1169 1209 1
1170 1171 5
1170 1210 1
1171 1172 1
1171 1211 5
1172 1173 4
1172 1212 4
1173 1174 3
1173 1213 1
1174 1175 3
1174 1214 4
1175 1176 5
1175 1215 1
1176 1177 3
1176 1216 3
1177 1178 1
1177 1217 2
1178 1179 1
1178 1218 2
1179 1180 4
1179 1219 4
1180 1181 5
1180 1220 2
1181 1182 5
1181 1221 3
1182 1183 1
1182 1222 3
1183 1184 3
1183 1223 5
1184 1185 1
1184 1224 5
1185 1186 4
1185 1225 3
1186 1187 3
1186 1226 2
1187 1188 1
1187 1227 2
1188 1189 3
1188 1228 4
1189 1190 5
1189 1229 3
1190 1191 1
1190 1230 3
1191 1192 5
1191 1231 5
1192 1193 1
1192 1232 2
1193 1194 1
1193 1233 3
1194 1195 4
1194 1234 1
1195 1196 4
1195 1235 5
1196 1197 5
1196 1236 3
1197 1198 3
1197 1237 2
1198 1199 5
1198 1238 2
1199 1200 3
1199 1239 1
1200 1240 3
1201 1202 5
1201 1241 5
1202 1203 1
1202 1242 3
1203 1204 4
1203 1243 4
1204 1205 2
1204 1244 2
1205 1206 5
1205 1245 4
1206 1207 1
1206 1246 1
1207 1208 3
1207 1247 1
1208 1209 1
1208 1248 4
1209 1210 1
1209 1249 3
1210 1211 4
1210 1250 5
1211 1212 4
1211 1251 5
1212 1213 1
1212 1252 3
1213 1214 2
1213 1253 4
1214 1215 1
1214 1254 1
1215 1216 3
1215 1255 3
1216 1217 1
1216 1256 4
1217 1218 5
1217 1257 3
1218 1219 2
1218 1258 1
1219 1220 4
1219 1259 3
1220 1221 2
1220 1260 5
1221 1222 1
1221 1261 5
1222 1223 5
1222 1262 2
1223 1224 5
1223 1263 5
1224 1225 1
1224 1264 5
1225 1226 3
1225 1265 5
1226 1227 5
1226 1266 1
1227 1228 4
1227 1267 4
1228 1229 2
1228 1268 2
1229 1230 4
1229 1269 2
1230 1231 4
1230 1270 1
1231 1232 3
1231 1271 3
1232 1233 5
1232 1272 1
1233 1234 5
1233 1273 5
1234 1235 4
1234 1274 3
1235 1236 4
1235 1275 4
1236 1237 3
1236 1276 3
1237 1238 5
1237 1277 5
1238 1239 5
1238 1278 5
1239 1240 5
1239 1279 5
1240 1280 2
1241 1242 5
1241 1281 2
1242 1243 4
1242 1282 3
1243 1244 3
1243 1283 4
1244 1245 4
1244 1284 1
1245 1246 2
1245 1285 5
1246 1247 3
1246 1286 1
1247 1248 1
1247 1287 1
1248 1249 4
1248 1288 2
1249 1250 5
1249 1289 1
1250 1251 1
1250 1290 1
1251 1252 5
1251 1291 4
1252 1253 3
1252 1292 1
1253 1254 4
1253 1293 3
1254 1255 3
1254 1294 4
1255 1256 5
1255 1295 1
1256 1257 3
1256 1296 2
1257 1258 1
1257 1297 4
1258 1259 2
1258 1298 3
1259 1260 3
1259 1299 3
1260 1261 1
1260 1300 2
1261 1262 1
1261 1301 1
1262 1263 1
1262 1302 5
1263 1264 2
1263 1303 3
1264 1265 2
1264 1304 5
1265 1266 4
1265 1305 1
1266 1267 4
1266 1306 2
1267 1268 4
1267 1307 2
1268 1269 4
1268 1308 5
1269 1270 1
1269 1309 2
1270 1271 1
1270 1310 1
1271 1272 5
1271 1311 3
1272 1273 3
1272 1312 4
1273 1274 4
1273 1313 4
1274 1275 1
1274 1314 2
1275 1276 2
1275 1315 1
1276 1277 1
1276 1316 4
1277 1278 2
1277 1317 1
1278 1279 3
1278 1318 2
1279 1280 3
1279 1319 3
1280 1320 3
1281 1282 5
1281 1321 1
1282 1283 2
1282 1322 2
1283 1284 1
1283 1323 2
1284 1285 4
1284 1324 2
1285 1286 2
1285 1325 2
1286 1287 4
1286 1326 5
1287 1288 1
1287 1327 4
1288 1289 5
1288 1328 2
1289 1290 2
1289 1329 3
1290 1291 3
1290 1330 1
1291 1292 1
1291 1331 1
1292 1293 5
1292 1332 4
1293 1294 5
1293 1333 2
1294 1295 4
1294 1334 1
1295 1296 5
1295 1335 2
1296 1297 4
1296 1336 3
1297 1298 4
1297 1337 2
1298 1299 4
1298 1338 1
1299 1300 3
1299 1339 2
1300 1301 1
1300 1340 2
1301 1302 3
1301 1341 1
1302 1303 5
1302 1342 1
1303 1304 4
1303 1343 2
1304 1305 4
1304 1344 1
1305 1306 5
1305 1345 5
1306 1307 1
1306 1346 5
1307 1308 2
1307 1347 4
1308 1309 5
1308 1348 4
1309 1310 4
1309 1349 3
1310 1311 2
1310 1350 5
1311 1312 5
1311 1351 5
1312 1313 4
1312 1352 1
1313 1314 4
1313 1353 2
1314 1315 5
1314 1354 2
1315 1316 2
1315 1355 4
1316 1317 5
1316 1356 3
1317 1318 4
1317 1357 3
1318 1319 3
1318 1358 2
1319 1320 5
1319 1359 1
1320 1360 1
1321 1322 4
1321 1361 3
1322 1323 3
1322 1362 2
1323 1324 2
1323 1363 1
1324 1325 5
1324 1364 2
1325 1326 3
1325 1365 2
1326 1327 4
1326 1366 2
1327 1328 3
1327 1367 1
1328 1329 5
1328 1368 2
1329 1330 3
1329 1369 1
1330 1331 2
1330 1370 5
1331 1332 5
1331 1371 3
1332 1333 2
1332 1372 5
1333 1334 1
1333 1373 3
1334 1335 4
1334 1374 2
1335 1336 5
1335 1375 3
1336 1337 3
1336 1376 3
1337 1338 2
1337 1377 3
1338 1339 5
1338 1378 3
1339 1340 5
1339 1379 4
1340 1341 5
1340 1380 5
1341 1342 3
1341 1381 3
1342 1343 4
1342 1382 2
1343 1344 4
1343 1383 2
1344 1345 5
1344 1384 4
1345 1346 5
1345 1385 2
1346 1347 5
1346 1386 1
1347 1348 2
1347 1387 4
1348 1349 1
1348 1388 5
1349 1350 2
1349 1389 4
1350 1351 1
1350 1390 3
1351 1352 5
1351 1391 1
1352 1353 4
1352 1392 1
1353 1354 2
1353 1393 2
1354 1355 3
1354 1394 3
1355 1356 2
1355 1395 1
1356 1357 1
1356 1396 2
1357 1358 4
1357 1397 4
1358 1359 1
1358 1398 1
1359 1360 3
1359 1399 5
1360 1400 4
1361 1362 3
1361 1401 5
1362 1363 4
1362 1402 3
1363 1364 2
1363 1403 1
1364 1365 3
1364 1404 1
1365 1366 1
1365 1405 2
1366 1367 2
1366 1406 4
1367 1368 1
1367 1407 4
1368 1369 1
1368 1408 5
1369 1370 5
1369 1409 3
1370 1371 4
1370 1410 5
1371 1372 2
1371 1411 5
1372 1373 3
1372 1412 3
1373 1374 2
1373 1413 2
1374 1375 5
1374 1414 1
1375 1376 1
1375 1415 1
1376 1377 2
1376 1416 4
1377 1378 3
1377 1417 1
1378 1379 4
1378 1418 4
1379 1380 2
1379 1419 3
1380 1381 1
1380 1420 2
1381 1382 3
1381 1421 1
1382 1383 5
1382 1422 5
1383 1384 1
1383 1423 4
1384 1385 5
1384 1424 3
1385 1386 3
1385 1425 2
1386 1387 3
1386 1426 2
1387 1388 2
1387 1427 3
1388 1389 5
1388 1428 2
1389 1390 3
1389 1429 4
1390 1391 1
1390 1430 2
1391 1392 2
1391 1431 1
1392 1393 3
1392 1432 3
1393 1394 5
1393 1433 2
1394 1395 2
1394 1434 5
1395 1396 5
1395 1435 5
1396 1397 1
1396 1436 5
1397 1398 4
1397 1437 2
1398 1399 1
1398 1438 5
1399 1400 2
1399 1439 2
1400 1440 4
1401 1402 3
1401 1441 5
1402 1403 3
1402 1442 1
1403 1404 2
1403 1443 3
1404 1405 5
1404 1444 1
1405 1406 1
1405 1445 2
1406 1407 5
1406 1446 5
1407 1408 1
1407 1447 1
1408 1409 5
1408 1448 2
1409 1410 4
1409 1449 1
1410 1411 4
1410 1450 1
1411 1412 1
1411 1451 3
1412 1413 2
1412 1452 5
1413 1414 4
1413 1453 4
1414 1415 3
1414 1454 1
1415 1416 4
1415 1455 1
1416 1417 3
1416 1456 2
1417 1418 4
1417 1457 3
1418 1419 2
1418 1458 1
1419 1420 4
1419 1459 2
1420 1421 2
1420 1460 5
1421 1422 4
1421 1461 1
1422 1423 5
1422 1462 5
1423 1424 4
1423 1463 5
1424 1425 3
1424 1464 2
1425 1426 1
1425 1465 1
1426 1427 4
1426 1466 1
1427 1428 2
1427 1467 1
1428 1429 5
1428 1468 2
1429 1430 1
1429 1469 1
1430 1431 2
1430 1470 4
1431 1432 4
1431 1471 4
1432 1433 3
1432 1472 5
1433 1434 2
1433 1473 3
1434 1435 1
1434 1474 4
1435 1436 2
1435 1475 4
1436 1437 1
1436 1476 3
1437 1438 3
1437 1477 2
1438 1439 5
1438 1478 5
1439 1440 1
1439 1479 3
1440 1480 3
1441 1442 4
1441 1481 4
1442 1443 3
1442 1482 3
1443 1444 1
1443 1483 1
1444 1445 4
1444 1484 3
1445 1446 4
1445 1485 1
1446 1447 3
1446 1486 2
1447 1448 5
1447 1487 2
1448 1449 1
1448 1488 5
1449 1450 3
1449 1489 5
1450 1451 1
1450 1490 4
1451 1452 5
1451 1491 3
1452 1453 1
1452 1492 3
1453 1454 3
1453 1493 1
1454 1455 2
1454 1494 4
1455 1456 4
1455 1495 2
1456 1457 4
1456 1496 3
1457 1458 5
1457 1497 3
1458 1459 3
1458 1498 3
1459 1460 5
1459 1499 5
1460 1461 5
1460 1500 1
1461 1462 4
1461 1501 4
1462 1463 1
1462 1502 4
1463 1464 3
1463 1503 3
1464 1465 2
1464 1504 2
1465 1466 2
1465 1505 1
1466 1467 5
1466 1506 5
1467 1468 3
1467 1507 1
1468 1469 1
1468 1508 2
1469 1470 4
1469 1509 5
1470 1471 3
1470 1510 1
1471 1472 3
1471 1511 2
1472 1473 5
1472 1512 1
1473 1474 2
1473 1513 4
1474 1475 3
1474 1514 5
1475 1476 4
1475 1515 3
1476 1477 4
1476 1516 4
1477 1478 1
1477 1517 1
1478 1479 3
1478 1518 3
1479 1480 2
1479 1519 4
1480 1520 3
1481 1482 4
1481 1521 3
1482 1483 1
1482 1522 1
1483 1484 1
1483 1523 1
1484 1485 4
1484 1524 4
1485 1486 3
1485 1525 4
1486 1487 5
1486 1526 4
1487 1488 3
1487 1527 3
1488 1489 2
1488 1528 4
1489 1490 2
1489 1529 5
1490 1491 2
1490 1530 1
1491 1492 1
1491 1531 3
1492 1493 2
1492 1532 3
1493 1494 4
1493 1533 2
1494 1495 3
1494 1534 5
1495 1496 3
1495 1535 5
1496 1497 4
1496 1536 1
1497 1498 2
1497 1537 4
1498 1499 4
1498 1538 5
1499 1500 1
1499 1539 4
1500 1501 1
1500 1540 3
1501 1502 1
1501 1541 2
1502 1503 4
1502 1542 1
1503 1504 1
1503 1543 1
1504 1505 2
1504 1544 4
1505 1506 3
1505 1545 5
1506 1507 5
1506 1546 5
1507 1508 1
1507 1547 2
1508 1509 2
1508 1548 3
1509 1510 1
1509 1549 5
1510 1511 4
1510 1550 3
1511 1512 2
1511 1551 5
1512 1513 1
1512 1552 2
1513 1514 2
1513 1553 5
1514 1515 5
1514 1554 3
1515 1516 1
1515 1555 1
1516 1517 4
1516 1556 1
1517 1518 4
1517 1557 3
1518 1519 2
1518 1558 4
1519 1520 2
1519 1559 3
1520 1560 5
1521 1522 2
1521 1561 5
1522 1523 2
1522 1562 1
1523 1524 3
1523 1563 3
1524 1525 5
1524 1564 3
1525 1526 1
1525 1565 1
1526 1527 1
1526 1566 4
1527 1528 5
1527 1567 3
1528 1529 1
1528 1568 1
1529 1530 2
1529 1569 1
1530 1531 1
1530 1570 2
1531 1532 4
1531 1571 2
1532 1533 2
1532 1572 4
1533 1534 4
1533 1573 2
1534 1535 2
1534 1574 2
1535 1536 2
1535 1575 1
1536 1537 2
1536 1576 2
1537 1538 5
1537 1577 3
1538 1539 3
1538 1578 2
1539 1540 4
1539 1579 3
1540 1541 4
1540 1580 2
1541 1542 3
1541 1581 4
1542 1543 1
1542 1582 4
1543 1544 1
1543 1583 2
1544 1545 1
1544 1584 4
1545 1546 1
1545 1585 5
1546 1547 2
1546 1586 4
1547 1548 2
1547 1587 3
1548 1549 1
1548 1588 2
1549 1550 2
1549 1589 4
1550 1551 5
1550 1590 4
1551 1552 4
1551 1591 2
1552 1553 2
1552 1592 5
1553 1554 1
1553 1593 2
1554 1555 3
1554 1594 4
1555 1556 3
1555 1595 5
1556 1557 4
1556 1596 4
1557 1558 1
1557 1597 5
1558 1559 4
1558 1598 4
1559 1560 5
1559 1599 3
1560 1600 5
1561 1562 4
1562 1563 4
1563 1564 3
1564 1565 3
1565 1566 3
1566 1567 1
1567 1568 5
1568 1569 2
1569 1570 4
1570 1571 2
1571 1572 3
1572 1573 1
1573 1574 2
1574 1575 3
1575 1576 2
1576 1577 4
1577 1578 2
1578 1579 1
1579 1580 5
1580 1581 2
1581 1582 3
1582 1583 2
1583 1584 2
1584 1585 1
1585 1586 5
1586 1587 1
1587 1588 4
1588 1589 4
1589 1590 5
1590 1591 4
1591 1592 5
1592 1593 1
1593 1594 3
1594 1595 3
1595 1596 2
1596 1597 5
1597 1598 1
1598 1599 2
1599 1600 2
1 1561 4
2 1562 3
3 1563 5
4 1564 3
5 1565 2
6 1566 2
7 1567 2
8 1568 4
9 1569 3
10 1570 2
11 1571 1
12 1572 3
13 1573 1
14 1574 5
15 1575 3
16 1576 5
17 1577 4
18 1578 5
19 1579 5
20 1580 1
21 1581 4
22 1582 4
23 1583 3
24 1584 4
25 1585 1
26 1586 1
27 1587 1
28 1588 4
29 1589 2
30 1590 2
31 1591 4
32 1592 2
33 1593 1
34 1594 3
35 1595 2
36 1596 3
37 1597 2
38 1598 5
39 1599 4
40 1600 2
1 40 3
41 80 5
81 120 5
121 160 2
161 200 3
201 240 2
241 280 1
281 320 1
321 360 3
361 400 1
401 440 5
441 480 3
481 520 3
521 560 4
561 600 3
601 640 1
641 680 5
681 720 4
721 760 4
761 800 3
801 840 1
841 880 2
881 920 2
921 960 1
961 1000 4
1001 1040 4
1041 1080 5
1081 1120 2
1121 1160 4
1161 1200 4
1201 1240 1
1241 1280 1
1281 1320 1
1321 1360 4
1361 1400 1
1401 1440 5
1441 1480 2
1481 1520 2
1521 1560 3
1561 1600 1
